%%%mzn-stat: initTime=0.013669496
%%%mzn-stat: objective=187
%%%mzn-stat: nodes=1514
%%%mzn-stat: restarts=0
%%%mzn-stat: peakDepth=606
%%%mzn-stat: solveTime=0.364049169
%%%mzn-stat: variables=1346
%%%mzn-stat: propagators=1026
%%%mzn-stat: failures=692
%%%mzn-stat: propagations=108666
%%%mzn-stat: nogoods=692
%%%mzn-stat: AverageConflictSize=12.716763005780347
%%%mzn-stat: NumUnitNogoodsLearned=186
%%%mzn-stat: AverageLearnedNogoodLength=35.274566473988436
%%%mzn-stat: AverageBacktrackAmount=0
%%%mzn-stat: AverageLbd=18.48699421965318
%%%mzn-stat-end
maxleg = 187;
succ = array1d(1..100,[79, 22, 38, 94, 15, 10, 89, 85, 21, 18, 70, 51, 92, 60, 59, 87, 93, 9, 73, 77, 39, 63, 17, 71, 16, 95, 26, 75, 48, 19, 65, 62, 46, 12, 14, 84, 66, 86, 24, 81, 98, 96, 6, 43, 83, 34, 57, 37, 82, 56, 78, 25, 29, 47, 8, 68, 72, 32, 67, 42, 31, 20, 11, 1, 91, 36, 41, 49, 52, 3, 54, 55, 61, 80, 33, 27, 2, 13, 4, 44, 23, 99, 64, 50, 40, 5, 74, 35, 45, 53, 100, 30, 7, 58, 69, 97, 90, 28, 76, 88]);
% time elapsed: 1.95 s
----------
==========
% time elapsed: 1.95 s
%%%mzn-stat: initTime=0.013669496
%%%mzn-stat: objective=187
%%%mzn-stat: nodes=1514
%%%mzn-stat: restarts=0
%%%mzn-stat: peakDepth=606
%%%mzn-stat: solveTime=0.36405422
%%%mzn-stat: variables=1346
%%%mzn-stat: propagators=1026
%%%mzn-stat: failures=692
%%%mzn-stat: propagations=108666
%%%mzn-stat: nogoods=692
%%%mzn-stat: AverageConflictSize=12.716763005780347
%%%mzn-stat: NumUnitNogoodsLearned=186
%%%mzn-stat: AverageLearnedNogoodLength=35.274566473988436
%%%mzn-stat: AverageBacktrackAmount=0
%%%mzn-stat: AverageLbd=18.48699421965318
%%%mzn-stat-end
